Solver command line: ['/usr/local/bin/gurobi.sh']

Set parameter WLSAccessID
Set parameter WLSSecret
Set parameter LicenseID to value 2606900
Academic license 2606900 - for non-commercial use only - registered to so___@htwk-leipzig.de
Read LP format model from file /var/folders/jf/5sh4zzv94dxbcz8g7tg2jq5h0000gn/T/tmp_tp8mcna.pyomo.lp
Reading time = 2.13 seconds
objective: 970608 rows, 878399 columns, 2173998 nonzeros
Set parameter MIPGap to value 0.02
Gurobi Optimizer version 12.0.1 build v12.0.1rc0 (mac64[rosetta2] - Darwin 24.4.0 24E263)

CPU model: Apple M3
Thread count: 8 physical cores, 8 logical processors, using up to 8 threads

Non-default parameters:
MIPGap  0.02

Academic license 2606900 - for non-commercial use only - registered to so___@htwk-leipzig.de
Optimize a model with 970608 rows, 878399 columns and 2173998 nonzeros
Model fingerprint: 0x50e731c3
Model has 8783 quadratic constraints
Variable types: 755424 continuous, 122975 integer (105408 binary)
Coefficient statistics:
  Matrix range     [6e-03, 2e+02]
  QMatrix range    [1e+00, 1e+00]
  Objective range  [1e-02, 1e+03]
  Bounds range     [1e+00, 3e+00]
  RHS range        [8e-05, 1e+04]
Presolve removed 776470 rows and 657904 columns
Presolve time: 0.44s
Presolved: 194138 rows, 220495 columns, 614221 nonzeros
Variable types: 145809 continuous, 74686 integer (65902 binary)
Performing another presolve...
Presolve removed 70271 rows and 70271 columns
Presolve time: 4.75s
Deterministic concurrent LP optimizer: primal and dual simplex
Showing primal log only...


Root simplex log...

Iteration    Objective       Primal Inf.    Dual Inf.      Time
       0    2.4326894e+07   6.094817e+06   7.990419e+13      6s
Concurrent spin time: 0.33s (can be avoided by choosing Method=3)

Solved with dual simplex

Root simplex log...

Iteration    Objective       Primal Inf.    Dual Inf.      Time
   42615   -1.7231173e+07   0.000000e+00   0.000000e+00      9s

Root relaxation: objective -1.723117e+07, 42615 iterations, 2.68 seconds (4.41 work units)
Total elapsed time = 8.56s (DegenMoves)

    Nodes    |    Current Node    |     Objective Bounds      |     Work
 Expl Unexpl |  Obj  Depth IntInf | Incumbent    BestBd   Gap | It/Node Time

     0     0 -1.723e+07    0  694          - -1.723e+07      -     -   10s
H    0     0                    -1.62545e+07 -1.723e+07  6.01%     -   11s
     0     0 -1.721e+07    0  796 -1.625e+07 -1.721e+07  5.88%     -   13s
     0     0 -1.721e+07    0  778 -1.625e+07 -1.721e+07  5.85%     -   14s
     0     0 -1.721e+07    0  778 -1.625e+07 -1.721e+07  5.85%     -   14s
     0     0 -1.720e+07    0  666 -1.625e+07 -1.720e+07  5.80%     -   14s
     0     0 -1.720e+07    0  630 -1.625e+07 -1.720e+07  5.79%     -   15s
     0     0 -1.719e+07    0  637 -1.625e+07 -1.719e+07  5.78%     -   15s
     0     0 -1.719e+07    0  639 -1.625e+07 -1.719e+07  5.78%     -   15s
     0     0 -1.719e+07    0  636 -1.625e+07 -1.719e+07  5.78%     -   15s
     0     0 -1.719e+07    0  636 -1.625e+07 -1.719e+07  5.78%     -   15s
     0     0 -1.719e+07    0  685 -1.625e+07 -1.719e+07  5.77%     -   17s
     0     0 -1.719e+07    0  644 -1.625e+07 -1.719e+07  5.76%     -   18s
     0     0 -1.719e+07    0  657 -1.625e+07 -1.719e+07  5.76%     -   18s
H    0     0                    -1.62862e+07 -1.719e+07  5.56%     -   18s
     0     0 -1.719e+07    0  655 -1.629e+07 -1.719e+07  5.56%     -   18s
     0     0 -1.719e+07    0  656 -1.629e+07 -1.719e+07  5.56%     -   18s
H    0     0                    -1.63473e+07 -1.719e+07  5.16%     -   20s
H    0     0                    -1.63618e+07 -1.719e+07  5.07%     -   20s
H    0     0                    -1.63623e+07 -1.719e+07  5.07%     -   20s
H    0     0                    -1.63623e+07 -1.719e+07  5.07%     -   20s
     0     0 -1.719e+07    0  659 -1.636e+07 -1.719e+07  5.06%     -   20s
H    0     0                    -1.63826e+07 -1.719e+07  4.93%     -   21s
     0     0 -1.719e+07    0  643 -1.638e+07 -1.719e+07  4.93%     -   21s
     0     0 -1.719e+07    0  638 -1.638e+07 -1.719e+07  4.93%     -   21s
     0     0 -1.719e+07    0  638 -1.638e+07 -1.719e+07  4.93%     -   21s
H    0     0                    -1.63832e+07 -1.719e+07  4.93%     -   22s
H    0     0                    -1.63842e+07 -1.719e+07  4.92%     -   22s
H    0     0                    -1.63842e+07 -1.719e+07  4.92%     -   22s
H    0     0                    -1.63843e+07 -1.719e+07  4.92%     -   22s
H    0     0                    -1.63843e+07 -1.719e+07  4.92%     -   22s
     0     0 -1.719e+07    0  651 -1.638e+07 -1.719e+07  4.92%     -   22s
     0     0 -1.719e+07    0  640 -1.638e+07 -1.719e+07  4.92%     -   23s
     0     0 -1.719e+07    0  644 -1.638e+07 -1.719e+07  4.92%     -   23s
     0     0 -1.719e+07    0  642 -1.638e+07 -1.719e+07  4.92%     -   23s
     0     0 -1.719e+07    0  639 -1.638e+07 -1.719e+07  4.91%     -   24s
H    0     0                    -1.64088e+07 -1.719e+07  4.76%     -   25s
H    0     0                    -1.64134e+07 -1.719e+07  4.73%     -   25s
H    0     0                    -1.64144e+07 -1.719e+07  4.72%     -   25s
H    0     0                    -1.64146e+07 -1.719e+07  4.72%     -   25s
H    0     0                    -1.64147e+07 -1.719e+07  4.72%     -   25s
H    0     0                    -1.64155e+07 -1.719e+07  4.71%     -   26s
     0     0 -1.719e+07    0  657 -1.642e+07 -1.719e+07  4.71%     -   26s
     0     0 -1.719e+07    0  661 -1.642e+07 -1.719e+07  4.71%     -   26s
     0     0 -1.719e+07    0  668 -1.642e+07 -1.719e+07  4.71%     -   26s
     0     0 -1.719e+07    0  666 -1.642e+07 -1.719e+07  4.71%     -   27s
     0     0 -1.719e+07    0  670 -1.642e+07 -1.719e+07  4.71%     -   27s
H    0     0                    -1.64273e+07 -1.719e+07  4.64%     -   28s
H    0     0                    -1.64416e+07 -1.719e+07  4.55%     -   28s
H    0     0                    -1.64428e+07 -1.719e+07  4.54%     -   28s
H    0     0                    -1.64439e+07 -1.719e+07  4.53%     -   28s
     0     0 -1.719e+07    0  667 -1.644e+07 -1.719e+07  4.53%     -   30s
     0     0 -1.719e+07    0  670 -1.644e+07 -1.719e+07  4.53%     -   30s
     0     0 -1.719e+07    0  668 -1.644e+07 -1.719e+07  4.53%     -   30s
     0     0 -1.719e+07    0  522 -1.644e+07 -1.719e+07  4.53%     -   31s
     0     2 -1.719e+07    0  505 -1.644e+07 -1.719e+07  4.53%     -   33s
    39    48 -1.717e+07    6  580 -1.644e+07 -1.719e+07  4.53%  65.8   35s
H   59    64                    -1.64543e+07 -1.719e+07  4.47%  44.8   36s
H  119   141                    -1.64604e+07 -1.719e+07  4.43%  23.8   39s
   140   193 -1.717e+07   13  580 -1.646e+07 -1.719e+07  4.43%  20.9   40s
   433   592 -1.717e+07   35  575 -1.646e+07 -1.719e+07  4.43%  10.2   47s
   591   661 -1.717e+07   51  580 -1.646e+07 -1.719e+07  4.43%   8.1   50s
H  611   661                    -1.64763e+07 -1.719e+07  4.33%   7.9   50s
H  652   661                    -1.65040e+07 -1.719e+07  4.15%   7.6   51s
H  901  1383                    -1.65207e+07 -1.719e+07  4.05%   6.1   57s
  1382  2222 -1.717e+07  101  578 -1.652e+07 -1.719e+07  4.05%   4.8   63s
  2221  2451 -1.717e+07  161  576 -1.652e+07 -1.719e+07  4.05%   4.0   69s
  2450  2459 -1.717e+07  215  572 -1.652e+07 -1.719e+07  4.05%   3.8   75s
H 2458  2467                    -1.67160e+07 -1.719e+07  2.83%   3.8   86s
H 2466  2475                    -1.67196e+07 -1.719e+07  2.81%   3.8   93s
H 2467  2475                    -1.67441e+07 -1.719e+07  2.66%   3.8   93s
H 2473  2475                    -1.67445e+07 -1.719e+07  2.66%   3.8   93s
  2474  2983 -1.717e+07  218  572 -1.674e+07 -1.719e+07  2.66%   3.8   98s
  2982  3183 -1.717e+07  262  571 -1.674e+07 -1.719e+07  2.66%   3.8  103s
  3182  3996 -1.717e+07  285  569 -1.674e+07 -1.719e+07  2.66%   3.9  106s
H 3705  3996                    -1.67511e+07 -1.719e+07  2.62%   3.8  107s
  3995  4912 -1.716e+07  383  552 -1.675e+07 -1.719e+07  2.62%   3.7  110s
  4911  4920 -1.716e+07  492  546 -1.675e+07 -1.719e+07  2.62%   3.5  116s
H 4919  4928                    -1.67764e+07 -1.719e+07  2.46%   3.5  131s
H 4920  4928                    -1.67780e+07 -1.719e+07  2.45%   3.5  131s
H 4921  4928                    -1.67948e+07 -1.719e+07  2.35%   3.5  131s
  5559  6310 -1.715e+07  555  545 -1.679e+07 -1.719e+07  2.35%   3.3  138s
  6309  6952 -1.715e+07  628  530 -1.679e+07 -1.719e+07  2.35%   3.2  140s
H 7658  7653                    -1.68173e+07 -1.719e+07  2.21%   3.1  148s
H 7658  7653                    -1.68212e+07 -1.719e+07  2.19%   3.1  149s
H 7658  7653                    -1.68371e+07 -1.719e+07  2.09%   3.1  150s
H 7658  7653                    -1.68403e+07 -1.719e+07  2.07%   3.1  151s
H 7658  7653                    -1.68475e+07 -1.719e+07  2.03%   3.1  152s
H 7658  7653                    -1.68505e+07 -1.719e+07  2.01%   3.1  157s
H 7658  7653                    -1.68515e+07 -1.719e+07  2.00%   3.1  158s
H 7658  7653                    -1.68713e+07 -1.719e+07  1.88%   3.1  159s

Cutting planes:
  Learned: 11
  Gomory: 206
  Cover: 468
  Implied bound: 213
  MIR: 959
  Flow cover: 717
  Network: 2
  RLT: 69
  Relax-and-lift: 133
  PSD: 1

Explored 7658 nodes (87998 simplex iterations) in 161.68 seconds (224.76 work units)
Thread count was 8 (of 8 available processors)

Solution count 10: -1.68713e+07 -1.68515e+07 -1.68505e+07 ... -1.6778e+07

Optimal solution found (tolerance 2.00e-02)
Best objective -1.687128483817e+07, best bound -1.718926293766e+07, gap 1.8847%

